
Gurobi 9.0.2 (win64) logging started Sat Oct 10 15:28:11 2020

Changed value of parameter logfile to result\v6.2-20201010T1221\scenario_2030_eff070_cab2000.log
   Prev:   Default: 
Gurobi Optimizer version 9.0.2 build v9.0.2rc0 (win64)
Optimize a model with 1384150 rows, 884815 columns and 3912197 nonzeros
Model fingerprint: 0xdcfe9f2e
Coefficient statistics:
  Matrix range     [1e-07, 3e+05]
  Objective range  [1e+00, 1e+00]
  Bounds range     [0e+00, 0e+00]
  RHS range        [2e-05, 3e+08]
Warning: Model contains large matrix coefficient range
         Consider reformulating model or setting NumericFocus parameter
         to avoid numerical issues.

Concurrent LP optimizer: primal simplex, dual simplex, and barrier
Showing barrier log only...

Presolve removed 1129315 rows and 656241 columns
Presolve time: 3.42s
Presolved: 254835 rows, 342440 columns, 891938 nonzeros

Ordering time: 0.13s

Barrier statistics:
 Dense cols : 9
 AA' NZ     : 8.194e+05
 Factor NZ  : 4.461e+06 (roughly 300 MBytes of memory)
 Factor Ops : 1.125e+08 (less than 1 second per iteration)
 Threads    : 30

                  Objective                Residual
Iter       Primal          Dual         Primal    Dual     Compl     Time
   0  -1.93474285e+16 -1.58515983e+15  5.80e+06 1.56e+04  2.32e+12     4s
   1  -2.97200391e+15 -1.58855284e+15  8.83e+05 4.70e+06  7.65e+11     4s
   2  -1.25595789e+15 -1.27887054e+15  3.71e+05 8.32e+05  2.14e+11     5s
   3  -4.54103158e+14 -1.03391677e+15  1.31e+05 2.40e+05  7.22e+10     5s
   4  -1.06876698e+14 -6.37686259e+14  2.84e+04 5.84e+04  1.67e+10     5s
   5  -3.45806989e+13 -4.32168340e+14  9.20e+03 2.94e+04  7.01e+09     6s
   6  -1.62996662e+13 -2.50219707e+14  4.56e+03 9.52e+03  2.79e+09     6s
   7  -6.48702058e+12 -1.42987036e+14  1.95e+03 1.87e+03  8.91e+08     6s
   8  -1.08185006e+12 -6.43933595e+13  4.62e+02 2.50e+02  1.95e+08     7s
   9   5.35433307e+11 -7.97583146e+12  1.99e+00 2.33e+00  1.27e+07     7s
  10   1.51769611e+11 -1.28087554e+12  1.51e-01 2.34e-01  2.09e+06     7s
  11   5.32526891e+10 -3.83976897e+11  3.63e-02 9.24e-09  6.34e+05     8s
  12   2.59743858e+10 -1.66958439e+11  1.47e-02 1.12e-08  2.79e+05     8s
  13   1.60791913e+10 -5.67726016e+10  7.08e-03 1.49e-08  1.05e+05     8s
  14   1.64138808e+10 -4.87608111e+10  6.95e-03 1.12e-08  9.44e+04     8s
  15   1.10644401e+10 -1.16538931e+10  2.86e-03 1.12e-08  3.29e+04     9s
  16   7.86283155e+09  1.58819373e+08  8.28e-04 9.31e-09  1.11e+04     9s
  17   7.22758506e+09  3.28706289e+09  4.78e-04 7.45e-09  5.70e+03     9s
  18   6.95911131e+09  4.14939478e+09  3.50e-04 5.59e-09  4.06e+03     9s
  19   6.85782532e+09  4.52107408e+09  3.04e-04 5.59e-09  3.38e+03    10s
  20   6.76515242e+09  4.68901586e+09  2.60e-04 4.66e-09  3.00e+03    10s
  21   6.71952212e+09  4.94495401e+09  2.37e-04 3.73e-09  2.56e+03    10s
  22   6.58623400e+09  5.28357901e+09  1.73e-04 2.79e-09  1.88e+03    11s
  23   6.50441488e+09  5.36573253e+09  1.33e-04 2.79e-09  1.65e+03    11s
  24   6.41286463e+09  5.65691829e+09  9.12e-05 2.79e-09  1.09e+03    12s
  25   6.38704699e+09  5.81172481e+09  7.97e-05 2.79e-09  8.31e+02    12s
  26   6.38199818e+09  5.85446788e+09  7.75e-05 1.86e-09  7.62e+02    12s
  27   6.31041054e+09  5.90817346e+09  4.46e-05 1.86e-09  5.81e+02    13s
  28   6.28016575e+09  5.98350985e+09  3.15e-05 1.86e-09  4.29e+02    13s
  29   6.26773944e+09  6.03131384e+09  2.62e-05 1.86e-09  3.42e+02    13s
  30   6.24654025e+09  6.08900887e+09  1.73e-05 1.86e-09  2.28e+02    14s
  31   6.22718214e+09  6.11766213e+09  9.26e-06 1.86e-09  1.58e+02    14s
  32   6.22184796e+09  6.14165806e+09  7.18e-06 1.86e-09  1.16e+02    15s
  33   6.21724978e+09  6.15927455e+09  5.42e-06 1.86e-09  8.37e+01    15s
  34   6.21334714e+09  6.16493325e+09  3.93e-06 1.86e-09  6.99e+01    15s
  35   6.21181754e+09  6.17769738e+09  3.36e-06 1.86e-09  4.93e+01    16s
  36   6.20873387e+09  6.18336318e+09  2.22e-06 1.86e-09  3.66e+01    16s
  37   6.20666226e+09  6.19208645e+09  1.48e-06 1.86e-09  2.11e+01    16s
  38   6.20501183e+09  6.19708359e+09  8.95e-07 1.86e-09  1.15e+01    17s
  39   6.20387983e+09  6.19888673e+09  5.06e-07 1.86e-09  7.21e+00    17s
  40   6.20330614e+09  6.20062794e+09  3.10e-07 1.86e-09  3.87e+00    18s
  41   6.20289768e+09  6.20137289e+09  6.02e-07 1.86e-09  2.20e+00    18s
  42   6.20258902e+09  6.20172752e+09  3.27e-07 1.86e-09  1.24e+00    18s
  43   6.20246903e+09  6.20207021e+09  1.48e-07 1.86e-09  5.76e-01    18s
  44   6.20241154e+09  6.20230037e+09  1.53e-07 1.86e-09  1.61e-01    19s
  45   6.20237170e+09  6.20234282e+09  2.90e-08 1.86e-09  4.17e-02    19s
  46   6.20236134e+09  6.20236110e+09  1.16e-10 2.79e-09  3.46e-04    19s
  47   6.20236134e+09  6.20236111e+09  2.35e-04 2.79e-09  3.40e-04    20s

Barrier solved model in 47 iterations and 19.51 seconds
Optimal objective 6.20236134e+09

Crossover log...

   74433 DPushes remaining with DInf 0.0000000e+00                20s
    8360 DPushes remaining with DInf 0.0000000e+00                20s
       0 DPushes remaining with DInf 0.0000000e+00                23s
Warning: Markowitz tolerance tightened to 0.5

  149344 PPushes remaining with PInf 1.4370705e-04                23s
   60169 PPushes remaining with PInf 6.5687218e-03                47s
   34804 PPushes remaining with PInf 2.7129253e-02                52s
       0 PPushes remaining with PInf 0.0000000e+00                81s

  Push phase complete: Pinf 0.0000000e+00, Dinf 3.3077349e+06     81s

Iteration    Objective       Primal Inf.    Dual Inf.      Time
  174210    6.2023613e+09   0.000000e+00   3.307735e+06     82s
  176134    6.2023613e+09   0.000000e+00   0.000000e+00     86s

Solved with barrier
Solved in 176134 iterations and 85.95 seconds
Optimal objective  6.202361261e+09
Warning: unscaled primal violation = 0.000879538 and residual = 0.000879538
